n_res = 4;
rcap = [20, 19, 59, 55];
rtype = [1, 1, 2, 2];
n_tasks = 10;
modes = [ {1, 2, 3}, {4, 5, 6}, {7, 8, 9}, {10, 11, 12}, {13, 14, 15}, {16, 17, 18}, {19, 20, 21}, {22, 23, 24}, {25, 26, 27}, {28, 29, 30} ];
succ = [ {8, 9}, {4, 5, 6}, {7}, {8, 10}, {10}, {7, 10}, {8}, {}, {}, {} ];
n_opt = 30;
dur = [1, 2, 5, 3, 9, 10, 4, 8, 9, 7, 7, 8, 2, 3, 8, 1, 2, 2, 6, 8, 9, 2, 5, 8, 6, 9, 10, 4, 5, 8];
rreq = [|  7,  4,  3,  6,  4,  2,  4,  3,  3,  8,  6,  4,  7,  4,  3,  9,  4,  3,  8,  7,  7,  7,  6,  3,  5,  4,  4,  1,  1,  1
        |  7,  7,  7,  6,  5,  1,  5,  3,  3,  7,  8,  3,  8,  6,  6,  5,  1,  4,  8,  7,  6,  7,  7,  7,  4,  4,  3,  2,  2,  2
        |  9,  6,  4,  8,  7,  5,  8,  8,  7,  2,  2,  2, 10, 10, 10,  5,  2,  3,  3,  3,  2,  5,  5,  4,  9,  7,  5,  6,  6,  4
        |  7,  7,  4,  5,  4,  3,  7,  6,  5,  4,  3,  1,  8,  6,  4,  7,  5,  4,  6,  4,  4, 10, 10,  9,  2,  2,  1,  6,  4,  3 |];
